NAME : traveling-santa-2018-prime-paths.30722.tour
COMMENT : Length = 30722
COMMENT : Found by LKH [Keld Helsgaun] Sun Jun 12 20:00:12 2022
TYPE : TOUR
DIMENSION : 100
TOUR_SECTION
1
23
94
15
36
18
5
43
10
85
89
61
95
100
9
57
55
29
31
49
4
17
60
40
91
82
70
27
67
7
52
2
6
20
46
87
72
19
11
42
96
62
92
53
33
12
28
48
3
75
69
44
77
79
39
73
14
90
86
58
38
51
78
30
13
54
83
88
35
37
25
24
81
8
64
21
66
45
65
80
26
34
71
97
76
74
22
99
32
41
63
47
93
84
98
59
16
50
56
68
-1
EOF
